c book.min
c
p min 7 384
c
n 1 100
n 6 50
n 7 -150
c
a 1 2 0 9 6
a 1 2 0 9 13
a 1 2 0 9 19
a 1 2 0 9 25
a 1 2 0 9 31
a 1 2 0 9 38
a 1 2 0 9 44
a 1 2 0 9 50
a 1 2 0 9 56
a 1 2 0 9 63
a 1 2 0 9 69
a 1 2 0 9 75
a 1 2 0 9 81
a 1 2 0 9 88
a 1 2 0 9 94
a 1 2 0 9 100
a 2 1 0 9 6
a 2 1 0 9 13
a 2 1 0 9 19
a 2 1 0 9 25
a 2 1 0 9 31
a 2 1 0 9 38
a 2 1 0 9 44
a 2 1 0 9 50
a 2 1 0 9 56
a 2 1 0 9 63
a 2 1 0 9 69
a 2 1 0 9 75
a 2 1 0 9 81
a 2 1 0 9 88
a 2 1 0 9 94
a 2 1 0 9 100
c
a 1 3 0 9 6
a 1 3 0 9 13
a 1 3 0 9 19
a 1 3 0 9 25
a 1 3 0 9 31
a 1 3 0 9 38
a 1 3 0 9 44
a 1 3 0 9 50
a 1 3 0 9 56
a 1 3 0 9 63
a 1 3 0 9 69
a 1 3 0 9 75
a 1 3 0 9 81
a 1 3 0 9 88
a 1 3 0 9 94
a 1 3 0 9 100
a 3 1 0 9 6
a 3 1 0 9 13
a 3 1 0 9 19
a 3 1 0 9 25
a 3 1 0 9 31
a 3 1 0 9 38
a 3 1 0 9 44
a 3 1 0 9 50
a 3 1 0 9 56
a 3 1 0 9 63
a 3 1 0 9 69
a 3 1 0 9 75
a 3 1 0 9 81
a 3 1 0 9 88
a 3 1 0 9 94
a 3 1 0 9 100
c
a 2 3 0 9 6
a 2 3 0 9 13
a 2 3 0 9 19
a 2 3 0 9 25
a 2 3 0 9 31
a 2 3 0 9 38
a 2 3 0 9 44
a 2 3 0 9 50
a 2 3 0 9 56
a 2 3 0 9 63
a 2 3 0 9 69
a 2 3 0 9 75
a 2 3 0 9 81
a 2 3 0 9 88
a 2 3 0 9 94
a 2 3 0 9 100
a 3 2 0 9 6
a 3 2 0 9 13
a 3 2 0 9 19
a 3 2 0 9 25
a 3 2 0 9 31
a 3 2 0 9 38
a 3 2 0 9 44
a 3 2 0 9 50
a 3 2 0 9 56
a 3 2 0 9 63
a 3 2 0 9 69
a 3 2 0 9 75
a 3 2 0 9 81
a 3 2 0 9 88
a 3 2 0 9 94
a 3 2 0 9 100
c
a 2 4 0 9 6
a 2 4 0 9 13
a 2 4 0 9 19
a 2 4 0 9 25
a 2 4 0 9 31
a 2 4 0 9 38
a 2 4 0 9 44
a 2 4 0 9 50
a 2 4 0 9 56
a 2 4 0 9 63
a 2 4 0 9 69
a 2 4 0 9 75
a 2 4 0 9 81
a 2 4 0 9 88
a 2 4 0 9 94
a 2 4 0 9 100
a 4 2 0 9 6
a 4 2 0 9 13
a 4 2 0 9 19
a 4 2 0 9 25
a 4 2 0 9 31
a 4 2 0 9 38
a 4 2 0 9 44
a 4 2 0 9 50
a 4 2 0 9 56
a 4 2 0 9 63
a 4 2 0 9 69
a 4 2 0 9 75
a 4 2 0 9 81
a 4 2 0 9 88
a 4 2 0 9 94
a 4 2 0 9 100
c
a 2 7 0 9 6
a 2 7 0 9 13
a 2 7 0 9 19
a 2 7 0 9 25
a 2 7 0 9 31
a 2 7 0 9 38
a 2 7 0 9 44
a 2 7 0 9 50
a 2 7 0 9 56
a 2 7 0 9 63
a 2 7 0 9 69
a 2 7 0 9 75
a 2 7 0 9 81
a 2 7 0 9 88
a 2 7 0 9 94
a 2 7 0 9 100
a 7 2 0 9 6
a 7 2 0 9 13
a 7 2 0 9 19
a 7 2 0 9 25
a 7 2 0 9 31
a 7 2 0 9 38
a 7 2 0 9 44
a 7 2 0 9 50
a 7 2 0 9 56
a 7 2 0 9 63
a 7 2 0 9 69
a 7 2 0 9 75
a 7 2 0 9 81
a 7 2 0 9 88
a 7 2 0 9 94
a 7 2 0 9 100
c
a 3 5 0 9 6
a 3 5 0 9 13
a 3 5 0 9 19
a 3 5 0 9 25
a 3 5 0 9 31
a 3 5 0 9 38
a 3 5 0 9 44
a 3 5 0 9 50
a 3 5 0 9 56
a 3 5 0 9 63
a 3 5 0 9 69
a 3 5 0 9 75
a 3 5 0 9 81
a 3 5 0 9 88
a 3 5 0 9 94
a 3 5 0 9 100
a 5 3 0 9 6
a 5 3 0 9 13
a 5 3 0 9 19
a 5 3 0 9 25
a 5 3 0 9 31
a 5 3 0 9 38
a 5 3 0 9 44
a 5 3 0 9 50
a 5 3 0 9 56
a 5 3 0 9 63
a 5 3 0 9 69
a 5 3 0 9 75
a 5 3 0 9 81
a 5 3 0 9 88
a 5 3 0 9 94
a 5 3 0 9 100
c
a 3 7 0 9 6
a 3 7 0 9 13
a 3 7 0 9 19
a 3 7 0 9 25
a 3 7 0 9 31
a 3 7 0 9 38
a 3 7 0 9 44
a 3 7 0 9 50
a 3 7 0 9 56
a 3 7 0 9 63
a 3 7 0 9 69
a 3 7 0 9 75
a 3 7 0 9 81
a 3 7 0 9 88
a 3 7 0 9 94
a 3 7 0 9 100
a 7 3 0 9 6
a 7 3 0 9 13
a 7 3 0 9 19
a 7 3 0 9 25
a 7 3 0 9 31
a 7 3 0 9 38
a 7 3 0 9 44
a 7 3 0 9 50
a 7 3 0 9 56
a 7 3 0 9 63
a 7 3 0 9 69
a 7 3 0 9 75
a 7 3 0 9 81
a 7 3 0 9 88
a 7 3 0 9 94
a 7 3 0 9 100
c
a 4 5 0 9 6
a 4 5 0 9 13
a 4 5 0 9 19
a 4 5 0 9 25
a 4 5 0 9 31
a 4 5 0 9 38
a 4 5 0 9 44
a 4 5 0 9 50
a 4 5 0 9 56
a 4 5 0 9 63
a 4 5 0 9 69
a 4 5 0 9 75
a 4 5 0 9 81
a 4 5 0 9 88
a 4 5 0 9 94
a 4 5 0 9 100
a 5 4 0 9 6
a 5 4 0 9 13
a 5 4 0 9 19
a 5 4 0 9 25
a 5 4 0 9 31
a 5 4 0 9 38
a 5 4 0 9 44
a 5 4 0 9 50
a 5 4 0 9 56
a 5 4 0 9 63
a 5 4 0 9 69
a 5 4 0 9 75
a 5 4 0 9 81
a 5 4 0 9 88
a 5 4 0 9 94
a 5 4 0 9 100
c
a 4 6 0 9 6
a 4 6 0 9 13
a 4 6 0 9 19
a 4 6 0 9 25
a 4 6 0 9 31
a 4 6 0 9 38
a 4 6 0 9 44
a 4 6 0 9 50
a 4 6 0 9 56
a 4 6 0 9 63
a 4 6 0 9 69
a 4 6 0 9 75
a 4 6 0 9 81
a 4 6 0 9 88
a 4 6 0 9 94
a 4 6 0 9 100
a 6 4 0 9 6
a 6 4 0 9 13
a 6 4 0 9 19
a 6 4 0 9 25
a 6 4 0 9 31
a 6 4 0 9 38
a 6 4 0 9 44
a 6 4 0 9 50
a 6 4 0 9 56
a 6 4 0 9 63
a 6 4 0 9 69
a 6 4 0 9 75
a 6 4 0 9 81
a 6 4 0 9 88
a 6 4 0 9 94
a 6 4 0 9 100
c
a 4 7 0 9 6
a 4 7 0 9 13
a 4 7 0 9 19
a 4 7 0 9 25
a 4 7 0 9 31
a 4 7 0 9 38
a 4 7 0 9 44
a 4 7 0 9 50
a 4 7 0 9 56
a 4 7 0 9 63
a 4 7 0 9 69
a 4 7 0 9 75
a 4 7 0 9 81
a 4 7 0 9 88
a 4 7 0 9 94
a 4 7 0 9 100
a 7 4 0 9 6
a 7 4 0 9 13
a 7 4 0 9 19
a 7 4 0 9 25
a 7 4 0 9 31
a 7 4 0 9 38
a 7 4 0 9 44
a 7 4 0 9 50
a 7 4 0 9 56
a 7 4 0 9 63
a 7 4 0 9 69
a 7 4 0 9 75
a 7 4 0 9 81
a 7 4 0 9 88
a 7 4 0 9 94
a 7 4 0 9 100
c
a 5 6 0 9 6
a 5 6 0 9 13
a 5 6 0 9 19
a 5 6 0 9 25
a 5 6 0 9 31
a 5 6 0 9 38
a 5 6 0 9 44
a 5 6 0 9 50
a 5 6 0 9 56
a 5 6 0 9 63
a 5 6 0 9 69
a 5 6 0 9 75
a 5 6 0 9 81
a 5 6 0 9 88
a 5 6 0 9 94
a 5 6 0 9 100
a 6 5 0 9 6
a 6 5 0 9 13
a 6 5 0 9 19
a 6 5 0 9 25
a 6 5 0 9 31
a 6 5 0 9 38
a 6 5 0 9 44
a 6 5 0 9 50
a 6 5 0 9 56
a 6 5 0 9 63
a 6 5 0 9 69
a 6 5 0 9 75
a 6 5 0 9 81
a 6 5 0 9 88
a 6 5 0 9 94
a 6 5 0 9 100
c
a 5 7 0 9 6
a 5 7 0 9 13
a 5 7 0 9 19
a 5 7 0 9 25
a 5 7 0 9 31
a 5 7 0 9 38
a 5 7 0 9 44
a 5 7 0 9 50
a 5 7 0 9 56
a 5 7 0 9 63
a 5 7 0 9 69
a 5 7 0 9 75
a 5 7 0 9 81
a 5 7 0 9 88
a 5 7 0 9 94
a 5 7 0 9 100
a 7 5 0 9 6
a 7 5 0 9 13
a 7 5 0 9 19
a 7 5 0 9 25
a 7 5 0 9 31
a 7 5 0 9 38
a 7 5 0 9 44
a 7 5 0 9 50
a 7 5 0 9 56
a 7 5 0 9 63
a 7 5 0 9 69
a 7 5 0 9 75
a 7 5 0 9 81
a 7 5 0 9 88
a 7 5 0 9 94
a 7 5 0 9 100
c
c eof
